p wcnf 4 16 100
100 -1 -2 -3 0
100 -1 -2 -4 0
100 -1 -3 -2 0
100 -1 -3 -4 0
100 -1 -4 -2 0
100 -1 -4 -3 0
100 -2 -3 -1 0
100 -2 -3 -4 0
100 -2 -4 -1 0
100 -2 -4 -3 0
100 -3 -4 -1 0
100 -3 -4 -2 0
1 1 0
1 2 0
2 3 0
2 4 0